WARNING: for repeatability, setting FPU to use double precision
============================[ Problem Statistics ]=============================
|                                                                             |
|  Number of variables:            50                                         |
|  Number of clauses:             218                                         |
|  Parse time:                   0.00 s                                       |
|                                                                             |
============================[ Search Statistics ]==============================
| Conflicts |          ORIGINAL         |          LEARNT          | Progress |
|           |    Vars  Clauses Literals |    Limit  Clauses Lit/Cl |          |
===============================================================================
===============================================================================
restarts              : 1
conflicts             : 60             (40323 /sec)
decisions             : 62             (0.00 % random) (41667 /sec)
propagations          : 797            (535618 /sec)
conflict literals     : 256            (15.23 % deleted)
Memory used           : 20.00 MB
CPU time              : 0.001488 s

UNSATISFIABLE
